
domSetOfBlockInFunction = array1d(allBlocksInFunction, [{0}]);

execFrequencyOfBlockInFunction = array1d(allBlocksInFunction, [16384]);

defEdgesForBlockInFunction = array1d(allBlocksInFunction, [{}]);

entryBlockOfFunction = 0;

funLocDomain = [|1, 1, 33, |0, 1, 33, |];

numBlocksInFunction = 1;

numDataInFunction = 16;

numOperationsInFunction = 14;

statesInFunction = [];

inBlock = [|0, 0, |1, 0, |2, 0, |19, 0, |];

inBlockSucc = [| |];

locDomain = locDomain = [|11, 7, 0, 31, |11, 10, 0, 31, |11, 3, 1, 31, |12, 11, 0, 31, |12, 9, 0, 31, |12, 4, 1, 31, |13, 7, 0, 31, |13, 10]; // array too long to display, dimensions: (297)


applyDefDomUseConstraintForMatch = array1d(allMatches, [true,true,true,true,true,true,true,true,true,true,true,true,true,true,true,true,true,true,true,true,true,true,true,true,true,true,true,true,true,true,true,true,true,true,true,true,true,true,true,true,true,true,true,true,true,true]);

codeSizeOfMatch = array1d(allMatches, [0,0,0,0,0,0,0,0,0,0,0,4,4,4,4,4,4,4,4,4,4,4,4,4,4,4,4,4,4,4,4,4,4,4,4,4,4,4,4,4,4,4,4,4,4,8]);

consumedBlocksInMatch = array1d(allMatches, [{},{},{},{},{},{},{},{},{},{},{},{},{},{},{},{},{},{},{},{},{},{},{},{},{},{},{},{},{},{},{},{},{},{},{},{},{},{},{},{},{},{},{},{},{},{}]);

dataDefinedByMatch = array1d(allMatches, [{0},{1},{2},{7},{8},{9},{11},{12},{13},{14},{15},{3},{4},{3},{4},{6},{6},{5},{3,10},{},{7},{8},{9},{11},{12},{13},{14},{15},{7},{8},{9},{11},{12},{13},{14},{15},{7},{8},{9},{11},{12},{13},{14},{15},{10},{10}]);

dataUsedByMatch = array1d(allMatches, [{},{},{},{0},{1},{1},{3},{4},{4},{5},{6},{7,10},{11,9},{7,10},{11,9},{12,14},{12,14},{13,8},{7,2,10},{15},{0},{1},{1},{3},{4},{4},{5},{6},{0},{1},{1},{3},{4},{4},{5},{6},{0},{1},{1},{3},{4},{4},{5},{6},{2},{2}]);

entryBlockOfMatch = array1d(allMatches, [{0},{0},{0},{},{},{},{},{},{},{},{},{},{},{},{},{},{},{},{},{0},{},{},{},{},{},{},{},{},{},{},{},{},{},{},{},{},{},{},{},{},{},{},{},{},{},{}]);

latencyOfMatch = array1d(allMatches, [0,0,0,0,0,0,0,0,0,0,0,1,1,1,1,1,1,38,1,0,1,1,1,1,1,1,1,1,1,1,1,1,1,1,1,1,1,1,1,1,1,1,1,1,1,2]);

nonCopyMatches = {0,1,2,11,12,13,14,15,16,17,18,19};

operationsCoveredByMatch = array1d(allMatches, [{},{},{},{5},{6},{7},{9},{10},{11},{12},{13},{0},{1},{0},{1},{3},{3},{2},{0,8},{4},{5},{6},{7},{9},{10},{11},{12},{13},{5},{6},{7},{9},{10},{11},{12},{13},{5},{6},{7},{9},{10},{11},{12},{13},{8},{8}]);

spannedBlocksInMatch = array1d(allMatches, [{0},{0},{0},{},{},{},{},{},{},{},{},{},{},{},{},{},{},{},{},{0},{},{},{},{},{},{},{},{},{},{},{},{},{},{},{},{},{},{},{},{},{},{},{},{},{},{}]);

numLocations = 34;

numMatches = 46;

sameLoc = [|3, 0, 7, |4, 1, 8, |5, 1, 9, |6, 3, 11, |7, 4, 12, |8, 4, 13, |9, 5, 14, |10, 6, 15, |];

